17	4
15	13	10	8	
0	0	0	0	0	3	2	3	4	
6	0	0	6	0	3	5	10	17	
10	0	0	1	0	3	6	11	17	
8	0	0	0	5	3	10	11	17	
7	7	0	0	0	3	7	8	13	
50	0	0	8	0	3	16	17	17	
25	0	0	0	1	3	9	12	17	
125	0	0	0	7	3	9	14	17	
225	1	0	0	0	3	11	17	17	
175	0	4	0	0	3	12	16	17	
150	6	0	0	0	3	17	17	17	
225	0	0	2	0	3	17	17	17	
10	0	8	0	0	3	15	17	17	
3	5	0	0	0	3	15	17	17	
4	0	0	9	0	3	16	17	17	
7	5	0	0	0	2	17	17	
0	0	0	0	0	0	
